p cnf 250 1228
141 189 0
117 220 231 0
115 128 136 159 228 0
121 156 183 0
161 163 164 202 0
90 94 138 172 0
125 176 0
134 150 178 0
140 188 190 0
142 154 0
116 120 137 169 0
108 113 130 0
104 157 0
99 102 143 147 166 0
84 88 91 97 0
81 83 123 173 0
109 127 132 148 151 0
105 135 179 180 192 193 0
118 194 197 0
198 233 239 0
185 200 0
101 145 155 0
93 162 203 0
126 205 0
111 206 207 208 211 0
191 212 214 0
168 170 215 217 0
119 196 219 222 0
224 226 0
131 158 227 0
95 165 204 0
86 174 230 0
106 152 181 0
221 232 0
225 234 235 236 0
238 240 242 244 0
160 229 245 0
246 247 249 250 0
124 175 0
79 110 210 0
75 77 139 187 0
74 153 213 0
195 223 0
70 72 73 0
98 146 0
69 85 87 96 0
-67 -68 0
-68 -115 0
-67 -115 0
-118 -233 0
-118 -241 0
-233 -241 0
-65 -206 0
-177 -206 0
-65 -177 0
-68 -118 0
-68 -206 0
-118 -206 0
-67 -233 0
-65 -67 0
-65 -233 0
-115 -241 0
-115 -177 0
-177 -241 0
-125 -209 0
-125 -150 0
-125 -169 0
-64 -125 0
-150 -209 0
-169 -209 0
-64 -209 0
-150 -169 0
-64 -150 0
-64 -169 0
-104 -113 0
-102 -113 0
-63 -113 0
-105 -113 0
-102 -104 0
-63 -104 0
-104 -105 0
-63 -102 0
-102 -105 0
-63 -105 0
-89 -205 0
-89 -207 0
-89 -191 0
-89 -119 0
-205 -207 0
-191 -205 0
-119 -205 0
-191 -207 0
-119 -207 0
-119 -191 0
-62 -71 0
-62 -131 0
-62 -86 0
-61 -62 0
-71 -131 0
-71 -86 0
-61 -71 0
-86 -131 0
-61 -131 0
-61 -86 0
-59 -144 0
-144 -246 0
-58 -144 0
-74 -144 0
-59 -246 0
-58 -59 0
-59 -74 0
-58 -246 0
-74 -246 0
-58 -74 0
-113 -125 0
-89 -125 0
-62 -125 0
-125 -144 0
-89 -113 0
-62 -113 0
-113 -144 0
-62 -89 0
-89 -144 0
-62 -144 0
-104 -209 0
-205 -209 0
-71 -209 0
-59 -209 0
-104 -205 0
-71 -104 0
-59 -104 0
-71 -205 0
-59 -205 0
-59 -71 0
-102 -150 0
-150 -207 0
-131 -150 0
-150 -246 0
-102 -207 0
-102 -131 0
-102 -246 0
-131 -207 0
-207 -246 0
-131 -246 0
-63 -169 0
-169 -191 0
-86 -169 0
-58 -169 0
-63 -191 0
-63 -86 0
-58 -63 0
-86 -191 0
-58 -191 0
-58 -86 0
-64 -105 0
-64 -119 0
-61 -64 0
-64 -74 0
-105 -119 0
-61 -105 0
-74 -105 0
-61 -119 0
-74 -119 0
-61 -74 0
-141 -220 0
-141 -237 0
-57 -141 0
-141 -228 0
-141 -161 0
-94 -141 0
-220 -237 0
-57 -220 0
-220 -228 0
-161 -220 0
-94 -220 0
-57 -237 0
-228 -237 0
-161 -237 0
-94 -237 0
-57 -228 0
-57 -161 0
-57 -94 0
-161 -228 0
-94 -228 0
-94 -161 0
-55 -176 0
-55 -134 0
-55 -188 0
-55 -154 0
-53 -55 0
-52 -55 0
-134 -176 0
-176 -188 0
-154 -176 0
-53 -176 0
-52 -176 0
-134 -188 0
-134 -154 0
-53 -134 0
-52 -134 0
-154 -188 0
-53 -188 0
-52 -188 0
-53 -154 0
-52 -154 0
-52 -53 0
-50 -108 0
-50 -147 0
-50 -97 0
-50 -123 0
-50 -148 0
-50 -180 0
-108 -147 0
-97 -108 0
-108 -123 0
-108 -148 0
-108 -180 0
-97 -147 0
-123 -147 0
-147 -148 0
-147 -180 0
-97 -123 0
-97 -148 0
-97 -180 0
-123 -148 0
-123 -180 0
-148 -180 0
-171 -203 0
-203 -208 0
-78 -203 0
-49 -203 0
-203 -215 0
-203 -219 0
-171 -208 0
-78 -171 0
-49 -171 0
-171 -215 0
-171 -219 0
-78 -208 0
-49 -208 0
-208 -215 0
-208 -219 0
-49 -78 0
-78 -215 0
-78 -219 0
-49 -215 0
-49 -219 0
-215 -219 0
-48 -224 0
-224 -227 0
-47 -224 0
-165 -224 0
-80 -224 0
-45 -224 0
-48 -227 0
-47 -48 0
-48 -165 0
-48 -80 0
-45 -48 0
-47 -227 0
-165 -227 0
-80 -227 0
-45 -227 0
-47 -165 0
-47 -80 0
-45 -47 0
-80 -165 0
-45 -165 0
-45 -80 0
-100 -199 0
-199 -247 0
-124 -199 0
-199 -210 0
-77 -199 0
-199 -213 0
-100 -247 0
-100 -124 0
-100 -210 0
-77 -100 0
-100 -213 0
-124 -247 0
-210 -247 0
-77 -247 0
-213 -247 0
-124 -210 0
-77 -124 0
-124 -213 0
-77 -210 0
-210 -213 0
-77 -213 0
-167 -195 0
-73 -167 0
-112 -167 0
-103 -167 0
-69 -167 0
-43 -167 0
-73 -195 0
-112 -195 0
-103 -195 0
-69 -195 0
-43 -195 0
-73 -112 0
-73 -103 0
-69 -73 0
-43 -73 0
-103 -112 0
-69 -112 0
-43 -112 0
-69 -103 0
-43 -103 0
-43 -69 0
-55 -141 0
-50 -141 0
-141 -203 0
-141 -224 0
-141 -199 0
-141 -167 0
-50 -55 0
-55 -203 0
-55 -224 0
-55 -199 0
-55 -167 0
-50 -203 0
-50 -224 0
-50 -199 0
-50 -167 0
-203 -224 0
-199 -203 0
-167 -203 0
-199 -224 0
-167 -224 0
-167 -199 0
-176 -220 0
-108 -220 0
-171 -220 0
-48 -220 0
-100 -220 0
-195 -220 0
-108 -176 0
-171 -176 0
-48 -176 0
-100 -176 0
-176 -195 0
-108 -171 0
-48 -108 0
-100 -108 0
-108 -195 0
-48 -171 0
-100 -171 0
-171 -195 0
-48 -100 0
-48 -195 0
-100 -195 0
-134 -237 0
-147 -237 0
-208 -237 0
-227 -237 0
-237 -247 0
-73 -237 0
-134 -147 0
-134 -208 0
-134 -227 0
-134 -247 0
-73 -134 0
-147 -208 0
-147 -227 0
-147 -247 0
-73 -147 0
-208 -227 0
-208 -247 0
-73 -208 0
-227 -247 0
-73 -227 0
-73 -247 0
-57 -188 0
-57 -97 0
-57 -78 0
-47 -57 0
-57 -124 0
-57 -112 0
-97 -188 0
-78 -188 0
-47 -188 0
-124 -188 0
-112 -188 0
-78 -97 0
-47 -97 0
-97 -124 0
-97 -112 0
-47 -78 0
-78 -124 0
-78 -112 0
-47 -124 0
-47 -112 0
-112 -124 0
-154 -228 0
-123 -228 0
-49 -228 0
-165 -228 0
-210 -228 0
-103 -228 0
-123 -154 0
-49 -154 0
-154 -165 0
-154 -210 0
-103 -154 0
-49 -123 0
-123 -165 0
-123 -210 0
-103 -123 0
-49 -165 0
-49 -210 0
-49 -103 0
-165 -210 0
-103 -165 0
-103 -210 0
-53 -161 0
-148 -161 0
-161 -215 0
-80 -161 0
-77 -161 0
-69 -161 0
-53 -148 0
-53 -215 0
-53 -80 0
-53 -77 0
-53 -69 0
-148 -215 0
-80 -148 0
-77 -148 0
-69 -148 0
-80 -215 0
-77 -215 0
-69 -215 0
-77 -80 0
-69 -80 0
-69 -77 0
-52 -94 0
-94 -180 0
-94 -219 0
-45 -94 0
-94 -213 0
-43 -94 0
-52 -180 0
-52 -219 0
-45 -52 0
-52 -213 0
-43 -52 0
-180 -219 0
-45 -180 0
-180 -213 0
-43 -180 0
-45 -219 0
-213 -219 0
-43 -219 0
-45 -213 0
-43 -45 0
-43 -213 0
-42 -248 0
-140 -248 0
-142 -248 0
-120 -248 0
-41 -248 0
-40 -248 0
-42 -140 0
-42 -142 0
-42 -120 0
-41 -42 0
-40 -42 0
-140 -142 0
-120 -140 0
-41 -140 0
-40 -140 0
-120 -142 0
-41 -142 0
-40 -142 0
-41 -120 0
-40 -120 0
-40 -41 0
-39 -157 0
-39 -91 0
-39 -173 0
-38 -39 0
-39 -132 0
-39 -135 0
-91 -157 0
-157 -173 0
-38 -157 0
-132 -157 0
-135 -157 0
-91 -173 0
-38 -91 0
-91 -132 0
-91 -135 0
-38 -173 0
-132 -173 0
-135 -173 0
-38 -132 0
-38 -135 0
-132 -135 0
-126 -162 0
-37 -162 0
-36 -162 0
-162 -212 0
-162 -170 0
-162 -222 0
-37 -126 0
-36 -126 0
-126 -212 0
-126 -170 0
-126 -222 0
-36 -37 0
-37 -212 0
-37 -170 0
-37 -222 0
-36 -212 0
-36 -170 0
-36 -222 0
-170 -212 0
-212 -222 0
-170 -222 0
-35 -226 0
-34 -226 0
-204 -226 0
-226 -230 0
-33 -226 0
-32 -226 0
-34 -35 0
-35 -204 0
-35 -230 0
-33 -35 0
-32 -35 0
-34 -204 0
-34 -230 0
-33 -34 0
-32 -34 0
-204 -230 0
-33 -204 0
-32 -204 0
-33 -230 0
-32 -230 0
-32 -33 0
-31 -106 0
-106 -221 0
-106 -225 0
-106 -238 0
-56 -106 0
-106 -229 0
-31 -221 0
-31 -225 0
-31 -238 0
-31 -56 0
-31 -229 0
-221 -225 0
-221 -238 0
-56 -221 0
-221 -229 0
-225 -238 0
-56 -225 0
-225 -229 0
-56 -238 0
-229 -238 0
-56 -229 0
-30 -92 0
-30 -175 0
-30 -110 0
-30 -133 0
-30 -187 0
-30 -153 0
-92 -175 0
-92 -110 0
-92 -133 0
-92 -187 0
-92 -153 0
-110 -175 0
-133 -175 0
-175 -187 0
-153 -175 0
-110 -133 0
-110 -187 0
-110 -153 0
-133 -187 0
-133 -153 0
-153 -187 0
-51 -216 0
-107 -216 0
-29 -216 0
-146 -216 0
-96 -216 0
-122 -216 0
-51 -107 0
-29 -51 0
-51 -146 0
-51 -96 0
-51 -122 0
-29 -107 0
-107 -146 0
-96 -107 0
-107 -122 0
-29 -146 0
-29 -96 0
-29 -122 0
-96 -146 0
-122 -146 0
-96 -122 0
-39 -248 0
-162 -248 0
-226 -248 0
-106 -248 0
-30 -248 0
-216 -248 0
-39 -162 0
-39 -226 0
-39 -106 0
-30 -39 0
-39 -216 0
-162 -226 0
-106 -162 0
-30 -162 0
-162 -216 0
-106 -226 0
-30 -226 0
-216 -226 0
-30 -106 0
-106 -216 0
-30 -216 0
-42 -157 0
-42 -126 0
-35 -42 0
-31 -42 0
-42 -92 0
-42 -51 0
-126 -157 0
-35 -157 0
-31 -157 0
-92 -157 0
-51 -157 0
-35 -126 0
-31 -126 0
-92 -126 0
-51 -126 0
-31 -35 0
-35 -92 0
-35 -51 0
-31 -92 0
-31 -51 0
-51 -92 0
-91 -140 0
-37 -140 0
-34 -140 0
-140 -221 0
-140 -175 0
-107 -140 0
-37 -91 0
-34 -91 0
-91 -221 0
-91 -175 0
-91 -107 0
-34 -37 0
-37 -221 0
-37 -175 0
-37 -107 0
-34 -221 0
-34 -175 0
-34 -107 0
-175 -221 0
-107 -221 0
-107 -175 0
-142 -173 0
-36 -142 0
-142 -204 0
-142 -225 0
-110 -142 0
-29 -142 0
-36 -173 0
-173 -204 0
-173 -225 0
-110 -173 0
-29 -173 0
-36 -204 0
-36 -225 0
-36 -110 0
-29 -36 0
-204 -225 0
-110 -204 0
-29 -204 0
-110 -225 0
-29 -225 0
-29 -110 0
-38 -120 0
-120 -212 0
-120 -230 0
-120 -238 0
-120 -133 0
-120 -146 0
-38 -212 0
-38 -230 0
-38 -238 0
-38 -133 0
-38 -146 0
-212 -230 0
-212 -238 0
-133 -212 0
-146 -212 0
-230 -238 0
-133 -230 0
-146 -230 0
-133 -238 0
-146 -238 0
-133 -146 0
-41 -132 0
-41 -170 0
-33 -41 0
-41 -56 0
-41 -187 0
-41 -96 0
-132 -170 0
-33 -132 0
-56 -132 0
-132 -187 0
-96 -132 0
-33 -170 0
-56 -170 0
-170 -187 0
-96 -170 0
-33 -56 0
-33 -187 0
-33 -96 0
-56 -187 0
-56 -96 0
-96 -187 0
-40 -135 0
-40 -222 0
-32 -40 0
-40 -229 0
-40 -153 0
-40 -122 0
-135 -222 0
-32 -135 0
-135 -229 0
-135 -153 0
-122 -135 0
-32 -222 0
-222 -229 0
-153 -222 0
-122 -222 0
-32 -229 0
-32 -153 0
-32 -122 0
-153 -229 0
-122 -229 0
-122 -153 0
-28 -178 0
-28 -137 0
-27 -28 0
-137 -178 0
-27 -178 0
-27 -137 0
-26 -143 0
-25 -26 0
-26 -127 0
-25 -143 0
-127 -143 0
-25 -127 0
-24 -152 0
-152 -240 0
-23 -152 0
-24 -240 0
-23 -24 0
-23 -240 0
-184 -249 0
-22 -184 0
-139 -184 0
-22 -249 0
-139 -249 0
-22 -139 0
-26 -28 0
-28 -152 0
-28 -184 0
-26 -152 0
-26 -184 0
-152 -184 0
-143 -178 0
-24 -178 0
-178 -249 0
-24 -143 0
-143 -249 0
-24 -249 0
-25 -137 0
-137 -240 0
-22 -137 0
-25 -240 0
-22 -25 0
-22 -240 0
-27 -127 0
-23 -27 0
-27 -139 0
-23 -127 0
-127 -139 0
-23 -139 0
-231 -243 0
-159 -231 0
-156 -231 0
-90 -231 0
-159 -243 0
-156 -243 0
-90 -243 0
-156 -159 0
-90 -159 0
-90 -156 0
-99 -130 0
-83 -130 0
-60 -130 0
-130 -179 0
-83 -99 0
-60 -99 0
-99 -179 0
-60 -83 0
-83 -179 0
-60 -179 0
-21 -194 0
-21 -66 0
-21 -114 0
-21 -145 0
-66 -194 0
-114 -194 0
-145 -194 0
-66 -114 0
-66 -145 0
-114 -145 0
-20 -158 0
-20 -95 0
-20 -174 0
-19 -20 0
-95 -158 0
-158 -174 0
-19 -158 0
-95 -174 0
-19 -95 0
-19 -174 0
-17 -18 0
-18 -234 0
-18 -242 0
-18 -245 0
-17 -234 0
-17 -242 0
-17 -245 0
-234 -242 0
-234 -245 0
-242 -245 0
-130 -231 0
-21 -231 0
-20 -231 0
-18 -231 0
-21 -130 0
-20 -130 0
-18 -130 0
-20 -21 0
-18 -21 0
-18 -20 0
-99 -243 0
-194 -243 0
-158 -243 0
-17 -243 0
-99 -194 0
-99 -158 0
-17 -99 0
-158 -194 0
-17 -194 0
-17 -158 0
-83 -159 0
-66 -159 0
-95 -159 0
-159 -234 0
-66 -83 0
-83 -95 0
-83 -234 0
-66 -95 0
-66 -234 0
-95 -234 0
-60 -156 0
-114 -156 0
-156 -174 0
-156 -242 0
-60 -114 0
-60 -174 0
-60 -242 0
-114 -174 0
-114 -242 0
-174 -242 0
-90 -179 0
-90 -145 0
-19 -90 0
-90 -245 0
-145 -179 0
-19 -179 0
-179 -245 0
-19 -145 0
-145 -245 0
-19 -245 0
-15 -16 0
-16 -136 0
-16 -183 0
-16 -202 0
-16 -172 0
-15 -136 0
-15 -183 0
-15 -202 0
-15 -172 0
-136 -183 0
-136 -202 0
-136 -172 0
-183 -202 0
-172 -183 0
-172 -202 0
-88 -166 0
-81 -166 0
-44 -166 0
-109 -166 0
-166 -192 0
-81 -88 0
-44 -88 0
-88 -109 0
-88 -192 0
-44 -81 0
-81 -109 0
-81 -192 0
-44 -109 0
-44 -192 0
-109 -192 0
-197 -198 0
-13 -197 0
-12 -197 0
-197 -200 0
-101 -197 0
-13 -198 0
-12 -198 0
-198 -200 0
-101 -198 0
-12 -13 0
-13 -200 0
-13 -101 0
-12 -200 0
-12 -101 0
-101 -200 0
-149 -211 0
-76 -211 0
-211 -214 0
-168 -211 0
-196 -211 0
-76 -149 0
-149 -214 0
-149 -168 0
-149 -196 0
-76 -214 0
-76 -168 0
-76 -196 0
-168 -214 0
-196 -214 0
-168 -196 0
-11 -232 0
-11 -235 0
-11 -244 0
-10 -11 0
-11 -160 0
-232 -235 0
-232 -244 0
-10 -232 0
-160 -232 0
-235 -244 0
-10 -235 0
-160 -235 0
-10 -244 0
-160 -244 0
-10 -160 0
-72 -129 0
-9 -72 0
-72 -98 0
-72 -85 0
-72 -82 0
-9 -129 0
-98 -129 0
-85 -129 0
-82 -129 0
-9 -98 0
-9 -85 0
-9 -82 0
-85 -98 0
-82 -98 0
-82 -85 0
-16 -166 0
-16 -197 0
-16 -211 0
-11 -16 0
-16 -72 0
-166 -197 0
-166 -211 0
-11 -166 0
-72 -166 0
-197 -211 0
-11 -197 0
-72 -197 0
-11 -211 0
-72 -211 0
-11 -72 0
-15 -88 0
-15 -198 0
-15 -149 0
-15 -232 0
-15 -129 0
-88 -198 0
-88 -149 0
-88 -232 0
-88 -129 0
-149 -198 0
-198 -232 0
-129 -198 0
-149 -232 0
-129 -149 0
-129 -232 0
-81 -136 0
-13 -136 0
-76 -136 0
-136 -235 0
-9 -136 0
-13 -81 0
-76 -81 0
-81 -235 0
-9 -81 0
-13 -76 0
-13 -235 0
-9 -13 0
-76 -235 0
-9 -76 0
-9 -235 0
-44 -183 0
-12 -183 0
-183 -214 0
-183 -244 0
-98 -183 0
-12 -44 0
-44 -214 0
-44 -244 0
-44 -98 0
-12 -214 0
-12 -244 0
-12 -98 0
-214 -244 0
-98 -214 0
-98 -244 0
-109 -202 0
-200 -202 0
-168 -202 0
-10 -202 0
-85 -202 0
-109 -200 0
-109 -168 0
-10 -109 0
-85 -109 0
-168 -200 0
-10 -200 0
-85 -200 0
-10 -168 0
-85 -168 0
-10 -85 0
-172 -192 0
-101 -172 0
-172 -196 0
-160 -172 0
-82 -172 0
-101 -192 0
-192 -196 0
-160 -192 0
-82 -192 0
-101 -196 0
-101 -160 0
-82 -101 0
-160 -196 0
-82 -196 0
-82 -160 0
-117 -189 0
-8 -189 0
-128 -189 0
-163 -189 0
-8 -117 0
-117 -128 0
-117 -163 0
-8 -128 0
-8 -163 0
-128 -163 0
-54 -93 0
-93 -111 0
-93 -186 0
-93 -217 0
-54 -111 0
-54 -186 0
-54 -217 0
-111 -186 0
-111 -217 0
-186 -217 0
-7 -181 0
-6 -181 0
-181 -236 0
-14 -181 0
-6 -7 0
-7 -236 0
-7 -14 0
-6 -236 0
-6 -14 0
-14 -236 0
-182 -201 0
-182 -250 0
-79 -182 0
-75 -182 0
-201 -250 0
-79 -201 0
-75 -201 0
-79 -250 0
-75 -250 0
-75 -79 0
-218 -223 0
-70 -218 0
-46 -218 0
-87 -218 0
-70 -223 0
-46 -223 0
-87 -223 0
-46 -70 0
-70 -87 0
-46 -87 0
-93 -189 0
-181 -189 0
-182 -189 0
-189 -218 0
-93 -181 0
-93 -182 0
-93 -218 0
-181 -182 0
-181 -218 0
-182 -218 0
-54 -117 0
-7 -117 0
-117 -201 0
-117 -223 0
-7 -54 0
-54 -201 0
-54 -223 0
-7 -201 0
-7 -223 0
-201 -223 0
-8 -111 0
-6 -8 0
-8 -250 0
-8 -70 0
-6 -111 0
-111 -250 0
-70 -111 0
-6 -250 0
-6 -70 0
-70 -250 0
-128 -186 0
-128 -236 0
-79 -128 0
-46 -128 0
-186 -236 0
-79 -186 0
-46 -186 0
-79 -236 0
-46 -236 0
-46 -79 0
-163 -217 0
-14 -163 0
-75 -163 0
-87 -163 0
-14 -217 0
-75 -217 0
-87 -217 0
-14 -75 0
-14 -87 0
-75 -87 0
-5 -121 0
-5 -164 0
-5 -138 0
-121 -164 0
-121 -138 0
-138 -164 0
-116 -190 0
-4 -190 0
-3 -190 0
-4 -116 0
-3 -116 0
-3 -4 0
-2 -84 0
-84 -151 0
-84 -193 0
-2 -151 0
-2 -193 0
-151 -193 0
-1 -239 0
-185 -239 0
-155 -239 0
-1 -185 0
-1 -155 0
-155 -185 0
-5 -190 0
-5 -84 0
-5 -239 0
-84 -190 0
-190 -239 0
-84 -239 0
-116 -121 0
-2 -121 0
-1 -121 0
-2 -116 0
-1 -116 0
-1 -2 0
-4 -164 0
-151 -164 0
-164 -185 0
-4 -151 0
-4 -185 0
-151 -185 0
-3 -138 0
-138 -193 0
-138 -155 0
-3 -193 0
-3 -155 0
-155 -193 0
